unsat
(:SPACER-conj                         11
 :SPACER-inductive-gen                59
 :SPACER-inductive-gen-weaken-fail    90
 :SPACER-inductive-gen-weaken-success 4
 :SPACER-inductive-level              8
 :SPACER-max-depth                    11
 :SPACER-max-query-lvl                11
 :SPACER-non-local-gen                20
 :SPACER-num-active-lemmas            22
 :SPACER-num-ctp-blocked              32
 :SPACER-num-invariants               30
 :SPACER-num-is_invariant             198
 :SPACER-num-lemma-jumped             3
 :SPACER-num-lemmas                   81
 :SPACER-num-pobs                     40
 :SPACER-num-propagations             134
 :SPACER-num-queries                  46
 :SPACER-num-reach-queries            7
 :SPACER-num-reuse-reach-facts        7
 :SPACER-subsume-pob                  6
 :SPACER-subsume-success              17
 :added-eqs                           11688
 :arith-assert-diseq                  6738
 :arith-assert-lower                  23672
 :arith-assert-upper                  17576
 :arith-bound-prop                    1464
 :arith-branch-var                    12
 :arith-conflicts                     150
 :arith-eq-adapter                    3496
 :arith-fixed-eqs                     2072
 :arith-gcd-conflicts                 18
 :arith-gcd-tests                     36
 :arith-ineq-splits                   12
 :arith-num-rows                      66
 :arith-offset-eqs                    760
 :arith-patches                       16
 :arith-patches_succ                  2
 :arith-pivots                        1854
 :arith-row-summations                9278
 :arith-tableau-max-columns           156
 :arith-tableau-max-rows              66
 :conflicts                           1160
 :decisions                           21488
 :del-clause                          4740
 :final-checks                        388
 :iuc_solver.num_proxies              146
 :max-memory                          34.47
 :memory                              33.68
 :minimized-lits                      324
 :mk-bool-var                         5842
 :mk-clause                           7334
 :num-allocs                          120048979
 :num-checks                          1088
 :pool_solver.checks                  544
 :pool_solver.checks.sat              153
 :pool_solver.checks.undef            25
 :propagations                        98486
 :rlimit-count                        470967
 :time                                0.39
 :time.iuc_solver.get_iuc             0.05
 :time.iuc_solver.get_iuc.hyp_reduce1 0.01
 :time.iuc_solver.get_iuc.hyp_reduce2 0.02
 :time.iuc_solver.get_iuc.learn_core  0.01
 :time.pool_solver.proof              0.01
 :time.pool_solver.smt.total          0.17
 :time.pool_solver.smt.total.sat      0.06
 :time.pool_solver.smt.total.undef    0.01
 :time.spacer.ctp                     0.00
 :time.spacer.init_rules              0.00
 :time.spacer.mbp                     0.01
 :time.spacer.solve                   0.36
 :time.spacer.solve.propagate         0.07
 :time.spacer.solve.reach             0.29
 :time.spacer.solve.reach.children    0.02
 :time.spacer.solve.reach.cluster     0.03
 :time.spacer.solve.reach.gen.global  0.03
 :time.spacer.solve.reach.gen.ind     0.05
 :time.spacer.solve.reach.is-reach    0.01)
(:max-memory   34.47
 :memory       33.68
 :num-allocs   120048979
 :rlimit-count 470967
 :time         0.39
 :total-time   0.40)
